p tw 144 26641 2 
1 74 
1 75 
1 78 
1 79 
1 82 
1 83 
1 85 
1 87 
1 90 
1 92 
1 94 
1 96 
1 97 
1 100 
1 101 
1 104 
1 106 
1 108 
1 109 
1 112 
1 113 
1 115 
1 118 
1 119 
1 121 
1 123 
1 126 
1 127 
1 130 
1 132 
1 133 
1 136 
1 137 
1 140 
1 142 
1 143 
2 73 
2 76 
2 77 
2 80 
2 81 
2 84 
2 86 
2 88 
2 89 
2 91 
2 93 
2 95 
2 98 
2 99 
2 102 
2 103 
2 105 
2 107 
2 110 
2 111 
2 114 
2 116 
2 117 
2 120 
2 122 
2 124 
2 125 
2 128 
2 129 
2 131 
2 134 
2 135 
2 138 
2 139 
2 141 
2 144 
3 4 
3 73 
3 75 
3 78 
3 80 
3 82 
3 83 
3 85 
3 87 
3 89 
3 91 
3 94 
3 96 
3 98 
3 100 
3 101 
3 103 
3 105 
3 107 
3 109 
3 112 
3 114 
3 116 
3 117 
3 119 
3 122 
3 124 
3 126 
3 128 
3 130 
3 132 
3 134 
3 135 
3 137 
3 140 
3 141 
3 144 
4 74 
4 76 
4 77 
4 79 
4 81 
4 84 
4 86 
4 88 
4 90 
4 92 
4 93 
4 95 
4 97 
4 99 
4 102 
4 104 
4 106 
4 108 
4 110 
4 111 
4 113 
4 115 
4 118 
4 120 
4 121 
4 123 
4 125 
4 127 
4 129 
4 131 
4 133 
4 136 
4 138 
4 139 
4 142 
4 143 
5 6 
5 74 
5 75 
5 78 
5 79 
5 82 
5 84 
5 85 
5 88 
5 90 
5 91 
5 93 
5 95 
5 98 
5 99 
5 102 
5 103 
5 105 
5 107 
5 109 
5 111 
5 114 
5 115 
5 118 
5 120 
5 121 
5 124 
5 126 
5 127 
5 130 
5 132 
5 133 
5 136 
5 138 
5 140 
5 141 
5 144 
6 73 
6 76 
6 77 
6 80 
6 81 
6 83 
6 86 
6 87 
6 89 
6 92 
6 94 
6 96 
6 97 
6 100 
6 101 
6 104 
6 106 
6 108 
6 110 
6 112 
6 113 
6 116 
6 117 
6 119 
6 122 
6 123 
6 125 
6 128 
6 129 
6 131 
6 134 
6 135 
6 137 
6 139 
6 142 
6 143 
7 8 
7 74 
7 76 
7 77 
7 80 
7 82 
7 84 
7 85 
7 87 
7 89 
7 91 
7 93 
7 96 
7 97 
7 99 
7 101 
7 104 
7 105 
7 107 
7 109 
7 111 
7 113 
7 115 
7 117 
7 119 
7 122 
7 123 
7 125 
7 127 
7 130 
7 131 
7 133 
7 135 
7 138 
7 140 
7 141 
7 143 
8 73 
8 75 
8 78 
8 79 
8 81 
8 83 
8 86 
8 88 
8 90 
8 92 
8 94 
8 95 
8 98 
8 100 
8 102 
8 103 
8 106 
8 108 
8 110 
8 112 
8 114 
8 116 
8 118 
8 120 
8 121 
8 124 
8 126 
8 128 
8 129 
8 132 
8 134 
8 136 
8 137 
8 139 
8 142 
8 144 
9 10 
9 74 
9 76 
9 78 
9 79 
9 81 
9 83 
9 86 
9 88 
9 90 
9 91 
9 93 
9 96 
9 97 
9 99 
9 102 
9 104 
9 105 
9 107 
9 109 
9 112 
9 114 
9 116 
9 117 
9 119 
9 121 
9 124 
9 125 
9 128 
9 130 
9 132 
9 133 
9 135 
9 137 
9 139 
9 142 
9 143 
10 73 
10 75 
10 77 
10 80 
10 82 
10 84 
10 85 
10 87 
10 89 
10 92 
10 94 
10 95 
10 98 
10 100 
10 101 
10 103 
10 106 
10 108 
10 110 
10 111 
10 113 
10 115 
10 118 
10 120 
10 122 
10 123 
10 126 
10 127 
10 129 
10 131 
10 134 
10 136 
10 138 
10 140 
10 141 
10 144 
11 12 
11 74 
11 75 
11 78 
11 79 
11 82 
11 84 
11 85 
11 88 
11 90 
11 92 
11 93 
11 96 
11 98 
11 100 
11 101 
11 103 
11 106 
11 107 
11 109 
11 111 
11 113 
11 116 
11 117 
11 120 
11 122 
11 123 
11 125 
11 128 
11 129 
11 131 
11 133 
11 135 
11 137 
11 139 
11 142 
11 144 
12 73 
12 76 
12 77 
12 80 
12 81 
12 83 
12 86 
12 87 
12 89 
12 91 
12 94 
12 95 
12 97 
12 99 
12 102 
12 104 
12 105 
12 108 
12 110 
12 112 
12 114 
12 115 
12 118 
12 119 
12 121 
12 124 
12 126 
12 127 
12 130 
12 132 
12 134 
12 136 
12 138 
12 140 
12 141 
12 143 
13 14 
13 73 
13 75 
13 77 
13 79 
13 82 
13 84 
13 86 
13 88 
13 89 
13 91 
13 93 
13 95 
13 97 
13 100 
13 101 
13 104 
13 106 
13 107 
13 109 
13 112 
13 113 
13 116 
13 117 
13 120 
13 121 
13 124 
13 126 
13 127 
13 129 
13 132 
13 134 
13 135 
13 138 
13 140 
13 142 
13 143 
14 74 
14 76 
14 78 
14 80 
14 81 
14 83 
14 85 
14 87 
14 90 
14 92 
14 94 
14 96 
14 98 
14 99 
14 102 
14 103 
14 105 
14 108 
14 110 
14 111 
14 114 
14 115 
14 118 
14 119 
14 122 
14 123 
14 125 
14 128 
14 130 
14 131 
14 133 
14 136 
14 137 
14 139 
14 141 
14 144 
15 16 
15 74 
15 75 
15 78 
15 79 
15 82 
15 83 
15 85 
15 87 
15 89 
15 92 
15 94 
15 95 
15 97 
15 99 
15 102 
15 104 
15 105 
15 107 
15 110 
15 111 
15 113 
15 116 
15 117 
15 119 
15 121 
15 124 
15 125 
15 128 
15 129 
15 131 
15 134 
15 136 
15 138 
15 140 
15 142 
15 144 
16 73 
16 76 
16 77 
16 80 
16 81 
16 84 
16 86 
16 88 
16 90 
16 91 
16 93 
16 96 
16 98 
16 100 
16 101 
16 103 
16 106 
16 108 
16 109 
16 112 
16 114 
16 115 
16 118 
16 120 
16 122 
16 123 
16 126 
16 127 
16 130 
16 132 
16 133 
16 135 
16 137 
16 139 
16 141 
16 143 
17 18 
17 73 
17 75 
17 77 
17 79 
17 81 
17 83 
17 86 
17 87 
17 90 
17 91 
17 93 
17 96 
17 98 
17 100 
17 102 
17 104 
17 105 
17 107 
17 109 
17 111 
17 113 
17 116 
17 118 
17 119 
17 122 
17 123 
17 126 
17 127 
17 130 
17 131 
17 134 
17 136 
17 138 
17 139 
17 142 
17 144 
18 74 
18 76 
18 78 
18 80 
18 82 
18 84 
18 85 
18 88 
18 89 
18 92 
18 94 
18 95 
18 97 
18 99 
18 101 
18 103 
18 106 
18 108 
18 110 
18 112 
18 114 
18 115 
18 117 
18 120 
18 121 
18 124 
18 125 
18 128 
18 129 
18 132 
18 133 
18 135 
18 137 
18 140 
18 141 
18 143 
19 20 
19 73 
19 76 
19 78 
19 79 
19 81 
19 84 
19 86 
19 87 
19 89 
19 92 
19 93 
19 95 
19 97 
19 99 
19 101 
19 103 
19 106 
19 108 
19 109 
19 111 
19 114 
19 116 
19 117 
19 119 
19 122 
19 124 
19 126 
19 127 
19 130 
19 131 
19 133 
19 136 
19 137 
19 140 
19 142 
19 144 
20 74 
20 75 
20 77 
20 80 
20 82 
20 83 
20 85 
20 88 
20 90 
20 91 
20 94 
20 96 
20 98 
20 100 
20 102 
20 104 
20 105 
20 107 
20 110 
20 112 
20 113 
20 115 
20 118 
20 120 
20 121 
20 123 
20 125 
20 128 
20 129 
20 132 
20 134 
20 135 
20 138 
20 139 
20 141 
20 143 
21 22 
21 73 
21 76 
21 77 
21 79 
21 82 
21 84 
21 85 
21 87 
21 89 
21 92 
21 94 
21 96 
21 98 
21 100 
21 102 
21 103 
21 105 
21 108 
21 109 
21 111 
21 114 
21 116 
21 118 
21 119 
21 121 
21 124 
21 125 
21 127 
21 129 
21 132 
21 133 
21 135 
21 138 
21 139 
21 142 
21 143 
22 74 
22 75 
22 78 
22 80 
22 81 
22 83 
22 86 
22 88 
22 90 
22 91 
22 93 
22 95 
22 97 
22 99 
22 101 
22 104 
22 106 
22 107 
22 110 
22 112 
22 113 
22 115 
22 117 
22 120 
22 122 
22 123 
22 126 
22 128 
22 130 
22 131 
22 134 
22 136 
22 137 
22 140 
22 141 
22 144 
23 24 
23 73 
23 76 
23 77 
23 80 
23 82 
23 83 
23 85 
23 87 
23 90 
23 91 
23 93 
23 95 
23 97 
23 100 
23 102 
23 103 
23 106 
23 107 
23 110 
23 111 
23 113 
23 116 
23 118 
23 120 
23 122 
23 124 
23 125 
23 128 
23 130 
23 132 
23 133 
23 136 
23 137 
23 140 
23 142 
23 143 
24 74 
24 75 
24 78 
24 79 
24 81 
24 84 
24 86 
24 88 
24 89 
24 92 
24 94 
24 96 
24 98 
24 99 
24 101 
24 104 
24 105 
24 108 
24 109 
24 112 
24 114 
24 115 
24 117 
24 119 
24 121 
24 123 
24 126 
24 127 
24 129 
24 131 
24 134 
24 135 
24 138 
24 139 
24 141 
24 144 
25 26 
25 74 
25 76 
25 78 
25 79 
25 82 
25 83 
25 86 
25 87 
25 90 
25 91 
25 94 
25 95 
25 98 
25 99 
25 101 
25 103 
25 106 
25 107 
25 110 
25 112 
25 113 
25 116 
25 118 
25 119 
25 122 
25 124 
25 126 
25 127 
25 129 
25 131 
25 133 
25 135 
25 138 
25 139 
25 141 
25 143 
26 73 
26 75 
26 77 
26 80 
26 81 
26 84 
26 85 
26 88 
26 89 
26 92 
26 93 
26 96 
26 97 
26 100 
26 102 
26 104 
26 105 
26 108 
26 109 
26 111 
26 114 
26 115 
26 117 
26 120 
26 121 
26 123 
26 125 
26 128 
26 130 
26 132 
26 134 
26 136 
26 137 
26 140 
26 142 
26 144 
27 28 
27 73 
27 76 
27 78 
27 79 
27 81 
27 84 
27 85 
27 87 
27 90 
27 91 
27 94 
27 95 
27 97 
27 100 
27 101 
27 104 
27 105 
27 108 
27 110 
27 111 
27 113 
27 116 
27 117 
27 120 
27 121 
27 123 
27 126 
27 128 
27 130 
27 132 
27 133 
27 135 
27 138 
27 139 
27 141 
27 144 
28 74 
28 75 
28 77 
28 80 
28 82 
28 83 
28 86 
28 88 
28 89 
28 92 
28 93 
28 96 
28 98 
28 99 
28 102 
28 103 
28 106 
28 107 
28 109 
28 112 
28 114 
28 115 
28 118 
28 119 
28 122 
28 124 
28 125 
28 127 
28 129 
28 131 
28 134 
28 136 
28 137 
28 140 
28 142 
28 143 
29 30 
29 73 
29 76 
29 77 
29 79 
29 81 
29 83 
29 85 
29 88 
29 89 
29 92 
29 94 
29 96 
29 98 
29 99 
29 102 
29 103 
29 106 
29 107 
29 109 
29 112 
29 113 
29 116 
29 117 
29 120 
29 121 
29 123 
29 126 
29 128 
29 130 
29 131 
29 133 
29 136 
29 138 
29 140 
29 141 
29 143 
30 74 
30 75 
30 78 
30 80 
30 82 
30 84 
30 86 
30 87 
30 90 
30 91 
30 93 
30 95 
30 97 
30 100 
30 101 
30 104 
30 105 
30 108 
30 110 
30 111 
30 114 
30 115 
30 118 
30 119 
30 122 
30 124 
30 125 
30 127 
30 129 
30 132 
30 134 
30 135 
30 137 
30 139 
30 142 
30 144 
31 32 
31 74 
31 75 
31 77 
31 79 
31 82 
31 83 
31 86 
31 88 
31 89 
31 91 
31 94 
31 96 
31 97 
31 100 
31 101 
31 103 
31 105 
31 108 
31 110 
31 111 
31 114 
31 115 
31 117 
31 120 
31 122 
31 124 
31 126 
31 128 
31 130 
31 131 
31 133 
31 136 
31 138 
31 139 
31 142 
31 143 
32 73 
32 76 
32 78 
32 80 
32 81 
32 84 
32 85 
32 87 
32 90 
32 92 
32 93 
32 95 
32 98 
32 99 
32 102 
32 104 
32 106 
32 107 
32 109 
32 112 
32 113 
32 116 
32 118 
32 119 
32 121 
32 123 
32 125 
32 127 
32 129 
32 132 
32 134 
32 135 
32 137 
32 140 
32 141 
32 144 
33 34 
33 74 
33 75 
33 78 
33 79 
33 81 
33 84 
33 86 
33 87 
33 89 
33 91 
33 94 
33 96 
33 97 
33 100 
33 102 
33 103 
33 106 
33 107 
33 110 
33 111 
33 114 
33 116 
33 118 
33 120 
33 121 
33 123 
33 125 
33 127 
33 130 
33 131 
33 134 
33 135 
33 137 
33 140 
33 141 
33 143 
34 73 
34 76 
34 77 
34 80 
34 82 
34 83 
34 85 
34 88 
34 90 
34 92 
34 93 
34 95 
34 98 
34 99 
34 101 
34 104 
34 105 
34 108 
34 109 
34 112 
34 113 
34 115 
34 117 
34 119 
34 122 
34 124 
34 126 
34 128 
34 129 
34 132 
34 133 
34 136 
34 138 
34 139 
34 142 
34 144 
35 36 
35 74 
35 75 
35 77 
35 80 
35 82 
35 83 
35 86 
35 87 
35 89 
35 92 
35 93 
35 96 
35 98 
35 99 
35 102 
35 104 
35 106 
35 108 
35 110 
35 111 
35 113 
35 116 
35 117 
35 120 
35 121 
35 124 
35 126 
35 127 
35 130 
35 132 
35 133 
35 135 
35 137 
35 139 
35 141 
35 144 
36 73 
36 76 
36 78 
36 79 
36 81 
36 84 
36 85 
36 88 
36 90 
36 91 
36 94 
36 95 
36 97 
36 100 
36 101 
36 103 
36 105 
36 107 
36 109 
36 112 
36 114 
36 115 
36 118 
36 119 
36 122 
36 123 
36 125 
36 128 
36 129 
36 131 
36 134 
36 136 
36 138 
36 140 
36 142 
36 143 
37 38 
37 74 
37 76 
37 77 
37 79 
37 82 
37 83 
37 86 
37 87 
37 89 
37 91 
37 93 
37 95 
37 98 
37 100 
37 101 
37 104 
37 105 
37 108 
37 109 
37 112 
37 114 
37 116 
37 118 
37 120 
37 121 
37 123 
37 125 
37 128 
37 129 
37 131 
37 133 
37 136 
37 137 
37 140 
37 141 
37 144 
38 73 
38 75 
38 78 
38 80 
38 81 
38 84 
38 85 
38 88 
38 90 
38 92 
38 94 
38 96 
38 97 
38 99 
38 102 
38 103 
38 106 
38 107 
38 110 
38 111 
38 113 
38 115 
38 117 
38 119 
38 122 
38 124 
38 126 
38 127 
38 130 
38 132 
38 134 
38 135 
38 138 
38 139 
38 142 
38 143 
39 40 
39 74 
39 76 
39 77 
39 79 
39 82 
39 84 
39 86 
39 87 
39 89 
39 92 
39 94 
39 95 
39 97 
39 99 
39 102 
39 103 
39 105 
39 107 
39 109 
39 112 
39 113 
39 115 
39 118 
39 120 
39 122 
39 123 
39 126 
39 128 
39 130 
39 132 
39 134 
39 135 
39 137 
39 139 
39 142 
39 144 
40 73 
40 75 
40 78 
40 80 
40 81 
40 83 
40 85 
40 88 
40 90 
40 91 
40 93 
40 96 
40 98 
40 100 
40 101 
40 104 
40 106 
40 108 
40 110 
40 111 
40 114 
40 116 
40 117 
40 119 
40 121 
40 124 
40 125 
40 127 
40 129 
40 131 
40 133 
40 136 
40 138 
40 140 
40 141 
40 143 
41 42 
41 73 
41 75 
41 78 
41 80 
41 82 
41 83 
41 85 
41 88 
41 89 
41 91 
41 94 
41 95 
41 97 
41 99 
41 102 
41 104 
41 106 
41 108 
41 109 
41 112 
41 114 
41 116 
41 118 
41 120 
41 122 
41 123 
41 125 
41 127 
41 130 
41 131 
41 133 
41 135 
41 138 
41 139 
41 142 
41 144 
42 74 
42 76 
42 77 
42 79 
42 81 
42 84 
42 86 
42 87 
42 90 
42 92 
42 93 
42 96 
42 98 
42 100 
42 101 
42 103 
42 105 
42 107 
42 110 
42 111 
42 113 
42 115 
42 117 
42 119 
42 121 
42 124 
42 126 
42 128 
42 129 
42 132 
42 134 
42 136 
42 137 
42 140 
42 141 
42 143 
43 44 
43 74 
43 75 
43 77 
43 79 
43 81 
43 83 
43 85 
43 87 
43 90 
43 92 
43 93 
43 95 
43 98 
43 99 
43 101 
43 103 
43 105 
43 108 
43 110 
43 112 
43 114 
43 116 
43 117 
43 120 
43 122 
43 123 
43 125 
43 127 
43 130 
43 132 
43 134 
43 135 
43 138 
43 140 
43 142 
43 143 
44 73 
44 76 
44 78 
44 80 
44 82 
44 84 
44 86 
44 88 
44 89 
44 91 
44 94 
44 96 
44 97 
44 100 
44 102 
44 104 
44 106 
44 107 
44 109 
44 111 
44 113 
44 115 
44 118 
44 119 
44 121 
44 124 
44 126 
44 128 
44 129 
44 131 
44 133 
44 136 
44 137 
44 139 
44 141 
44 144 
45 46 
45 73 
45 76 
45 78 
45 79 
45 82 
45 83 
45 86 
45 88 
45 90 
45 92 
45 94 
45 95 
45 98 
45 100 
45 102 
45 104 
45 105 
45 108 
45 109 
45 111 
45 113 
45 115 
45 117 
45 120 
45 122 
45 124 
45 125 
45 127 
45 130 
45 131 
45 134 
45 135 
45 137 
45 140 
45 141 
45 143 
46 74 
46 75 
46 77 
46 80 
46 81 
46 84 
46 85 
46 87 
46 89 
46 91 
46 93 
46 96 
46 97 
46 99 
46 101 
46 103 
46 106 
46 107 
46 110 
46 112 
46 114 
46 116 
46 118 
46 119 
46 121 
46 123 
46 126 
46 128 
46 129 
46 132 
46 133 
46 136 
46 138 
46 139 
46 142 
46 144 
47 48 
47 74 
47 76 
47 77 
47 79 
47 82 
47 84 
47 85 
47 88 
47 90 
47 92 
47 93 
47 96 
47 97 
47 100 
47 102 
47 104 
47 106 
47 108 
47 110 
47 112 
47 114 
47 116 
47 118 
47 119 
47 122 
47 124 
47 126 
47 128 
47 130 
47 131 
47 134 
47 135 
47 138 
47 140 
47 141 
47 144 
48 73 
48 75 
48 78 
48 80 
48 81 
48 83 
48 86 
48 87 
48 89 
48 91 
48 94 
48 95 
48 98 
48 99 
48 101 
48 103 
48 105 
48 107 
48 109 
48 111 
48 113 
48 115 
48 117 
48 120 
48 121 
48 123 
48 125 
48 127 
48 129 
48 132 
48 133 
48 136 
48 137 
48 139 
48 142 
48 143 
49 50 
49 73 
49 76 
49 78 
49 79 
49 82 
49 83 
49 85 
49 88 
49 89 
49 92 
49 93 
49 96 
49 97 
49 99 
49 101 
49 104 
49 105 
49 107 
49 110 
49 111 
49 114 
49 116 
49 118 
49 120 
49 122 
49 123 
49 126 
49 127 
49 129 
49 132 
49 134 
49 136 
49 137 
49 139 
49 141 
49 143 
50 74 
50 75 
50 77 
50 80 
50 81 
50 84 
50 86 
50 87 
50 90 
50 91 
50 94 
50 95 
50 98 
50 100 
50 102 
50 103 
50 106 
50 108 
50 109 
50 112 
50 113 
50 115 
50 117 
50 119 
50 121 
50 124 
50 125 
50 128 
50 130 
50 131 
50 133 
50 135 
50 138 
50 140 
50 142 
50 144 
51 52 
51 73 
51 76 
51 77 
51 79 
51 82 
51 84 
51 85 
51 87 
51 90 
51 91 
51 94 
51 96 
51 98 
51 99 
51 101 
51 104 
51 106 
51 107 
51 110 
51 112 
51 114 
51 115 
51 117 
51 120 
51 121 
51 124 
51 125 
51 127 
51 130 
51 131 
51 134 
51 136 
51 137 
51 139 
51 142 
51 144 
52 74 
52 75 
52 78 
52 80 
52 81 
52 83 
52 86 
52 88 
52 89 
52 92 
52 93 
52 95 
52 97 
52 100 
52 102 
52 103 
52 105 
52 108 
52 109 
52 111 
52 113 
52 116 
52 118 
52 119 
52 122 
52 123 
52 126 
52 128 
52 129 
52 132 
52 133 
52 135 
52 138 
52 140 
52 141 
52 143 
53 54 
53 74 
53 76 
53 78 
53 80 
53 82 
53 84 
53 86 
53 87 
53 90 
53 91 
53 94 
53 96 
53 98 
53 99 
53 102 
53 104 
53 106 
53 108 
53 109 
53 111 
53 114 
53 116 
53 117 
53 120 
53 122 
53 123 
53 126 
53 128 
53 129 
53 132 
53 134 
53 136 
53 138 
53 140 
53 142 
53 143 
54 73 
54 75 
54 77 
54 79 
54 81 
54 83 
54 85 
54 88 
54 89 
54 92 
54 93 
54 95 
54 97 
54 100 
54 101 
54 103 
54 105 
54 107 
54 110 
54 112 
54 113 
54 115 
54 118 
54 119 
54 121 
54 124 
54 125 
54 127 
54 130 
54 131 
54 133 
54 135 
54 137 
54 139 
54 141 
54 144 
55 56 
55 74 
55 76 
55 77 
55 80 
55 82 
55 83 
55 86 
55 88 
55 90 
55 92 
55 94 
55 95 
55 97 
55 100 
55 101 
55 103 
55 106 
55 107 
55 109 
55 111 
55 114 
55 116 
55 117 
55 119 
55 121 
55 123 
55 125 
55 127 
55 130 
55 132 
55 134 
55 136 
55 138 
55 139 
55 141 
55 144 
56 73 
56 75 
56 78 
56 79 
56 81 
56 84 
56 85 
56 87 
56 89 
56 91 
56 93 
56 96 
56 98 
56 99 
56 102 
56 104 
56 105 
56 108 
56 110 
56 112 
56 113 
56 115 
56 118 
56 120 
56 122 
56 124 
56 126 
56 128 
56 129 
56 131 
56 133 
56 135 
56 137 
56 140 
56 142 
56 143 
57 58 
57 74 
57 75 
57 77 
57 79 
57 81 
57 84 
57 85 
57 88 
57 89 
57 91 
57 94 
57 95 
57 98 
57 99 
57 101 
57 104 
57 106 
57 108 
57 109 
57 111 
57 113 
57 116 
57 118 
57 119 
57 122 
57 124 
57 125 
57 128 
57 130 
57 132 
57 134 
57 136 
57 137 
57 139 
57 141 
57 143 
58 73 
58 76 
58 78 
58 80 
58 82 
58 83 
58 86 
58 87 
58 90 
58 92 
58 93 
58 96 
58 97 
58 100 
58 102 
58 103 
58 105 
58 107 
58 110 
58 112 
58 114 
58 115 
58 117 
58 120 
58 121 
58 123 
58 126 
58 127 
58 129 
58 131 
58 133 
58 135 
58 138 
58 140 
58 142 
58 144 
59 60 
59 74 
59 76 
59 78 
59 80 
59 81 
59 84 
59 86 
59 88 
59 89 
59 92 
59 94 
59 96 
59 98 
59 100 
59 101 
59 104 
59 105 
59 107 
59 110 
59 112 
59 113 
59 116 
59 118 
59 120 
59 122 
59 124 
59 125 
59 127 
59 130 
59 132 
59 133 
59 136 
59 138 
59 140 
59 142 
59 144 
60 73 
60 75 
60 77 
60 79 
60 82 
60 83 
60 85 
60 87 
60 90 
60 91 
60 93 
60 95 
60 97 
60 99 
60 102 
60 103 
60 106 
60 108 
60 109 
60 111 
60 114 
60 115 
60 117 
60 119 
60 121 
60 123 
60 126 
60 128 
60 129 
60 131 
60 134 
60 135 
60 137 
60 139 
60 141 
60 143 
61 62 
61 73 
61 75 
61 77 
61 79 
61 82 
61 84 
61 86 
61 88 
61 90 
61 91 
61 94 
61 96 
61 97 
61 99 
61 102 
61 103 
61 105 
61 108 
61 110 
61 112 
61 113 
61 116 
61 117 
61 119 
61 122 
61 123 
61 125 
61 127 
61 129 
61 132 
61 133 
61 136 
61 137 
61 140 
61 141 
61 144 
62 74 
62 76 
62 78 
62 80 
62 81 
62 83 
62 85 
62 87 
62 89 
62 92 
62 93 
62 95 
62 98 
62 100 
62 101 
62 104 
62 106 
62 107 
62 109 
62 111 
62 114 
62 115 
62 118 
62 120 
62 121 
62 124 
62 126 
62 128 
62 130 
62 131 
62 134 
62 135 
62 138 
62 139 
62 142 
62 143 
63 64 
63 73 
63 75 
63 77 
63 80 
63 82 
63 84 
63 86 
63 88 
63 90 
63 92 
63 94 
63 95 
63 98 
63 99 
63 101 
63 104 
63 105 
63 107 
63 110 
63 111 
63 114 
63 116 
63 118 
63 119 
63 121 
63 123 
63 126 
63 128 
63 130 
63 131 
63 133 
63 135 
63 137 
63 140 
63 142 
63 143 
64 74 
64 76 
64 78 
64 79 
64 81 
64 83 
64 85 
64 87 
64 89 
64 91 
64 93 
64 96 
64 97 
64 100 
64 102 
64 103 
64 106 
64 108 
64 109 
64 112 
64 113 
64 115 
64 117 
64 120 
64 122 
64 124 
64 125 
64 127 
64 129 
64 132 
64 134 
64 136 
64 138 
64 139 
64 141 
64 144 
65 66 
65 73 
65 76 
65 78 
65 79 
65 82 
65 83 
65 86 
65 88 
65 89 
65 91 
65 93 
65 96 
65 98 
65 99 
65 101 
65 103 
65 106 
65 108 
65 110 
65 111 
65 113 
65 115 
65 118 
65 119 
65 121 
65 123 
65 125 
65 128 
65 130 
65 132 
65 134 
65 135 
65 138 
65 140 
65 142 
65 144 
66 74 
66 75 
66 77 
66 80 
66 81 
66 84 
66 85 
66 87 
66 90 
66 92 
66 94 
66 95 
66 97 
66 100 
66 102 
66 104 
66 105 
66 107 
66 109 
66 112 
66 114 
66 116 
66 117 
66 120 
66 122 
66 124 
66 126 
66 127 
66 129 
66 131 
66 133 
66 136 
66 137 
66 139 
66 141 
66 143 
67 68 
67 74 
67 76 
67 78 
67 80 
67 82 
67 84 
67 85 
67 88 
67 89 
67 91 
67 93 
67 95 
67 98 
67 100 
67 102 
67 103 
67 105 
67 108 
67 110 
67 112 
67 113 
67 116 
67 117 
67 119 
67 121 
67 123 
67 126 
67 127 
67 130 
67 131 
67 134 
67 136 
67 137 
67 139 
67 142 
67 143 
68 73 
68 75 
68 77 
68 79 
68 81 
68 83 
68 86 
68 87 
68 90 
68 92 
68 94 
68 96 
68 97 
68 99 
68 101 
68 104 
68 106 
68 107 
68 109 
68 111 
68 114 
68 115 
68 118 
68 120 
68 122 
68 124 
68 125 
68 128 
68 129 
68 132 
68 133 
68 135 
68 138 
68 140 
68 141 
68 144 
69 70 
69 73 
69 75 
69 78 
69 79 
69 82 
69 84 
69 86 
69 87 
69 89 
69 92 
69 93 
69 95 
69 98 
69 100 
69 102 
69 104 
69 106 
69 107 
69 110 
69 112 
69 114 
69 115 
69 117 
69 119 
69 122 
69 123 
69 125 
69 128 
69 130 
69 132 
69 133 
69 136 
69 138 
69 139 
69 141 
69 143 
70 74 
70 76 
70 77 
70 80 
70 81 
70 83 
70 85 
70 88 
70 90 
70 91 
70 94 
70 96 
70 97 
70 99 
70 101 
70 103 
70 105 
70 108 
70 109 
70 111 
70 113 
70 116 
70 118 
70 120 
70 121 
70 124 
70 126 
70 127 
70 129 
70 131 
70 134 
70 135 
70 137 
70 140 
70 142 
70 144 
71 72 
71 73 
71 75 
71 78 
71 80 
71 82 
71 84 
71 86 
71 87 
71 90 
71 92 
71 93 
71 96 
71 97 
71 99 
71 101 
71 103 
71 105 
71 108 
71 109 
71 112 
71 113 
71 116 
71 118 
71 120 
71 121 
71 124 
71 125 
71 128 
71 130 
71 131 
71 134 
71 136 
71 138 
71 139 
71 141 
71 143 
72 74 
72 76 
72 77 
72 79 
72 81 
72 83 
72 85 
72 88 
72 89 
72 91 
72 94 
72 95 
72 98 
72 100 
72 102 
72 104 
72 106 
72 107 
72 110 
72 111 
72 114 
72 115 
72 117 
72 119 
72 122 
72 123 
72 126 
72 127 
72 129 
72 132 
72 133 
72 135 
72 137 
72 140 
72 142 
72 144 
73 74 
75 76 
77 78 
79 80 
81 82 
83 84 
85 86 
87 88 
89 90 
91 92 
93 94 
95 96 
97 98 
99 100 
101 102 
103 104 
105 106 
107 108 
109 110 
111 112 
113 114 
115 116 
117 118 
119 120 
121 122 
123 124 
125 126 
127 128 
129 130 
131 132 
133 134 
135 136 
137 138 
139 140 
141 142 
143 144 
